GPU_version/outputs/rc102.out
Total number of lines in the file: 110
Total number of nodes including depot: 101
Customer 1: (40, 50), Demand: 0, Time Window: [0, 240], Service Time: 0
Customer 2: (25, 85), Demand: 20, Time Window: [0, 191], Service Time: 10
Customer 3: (22, 75), Demand: 30, Time Window: [0, 199], Service Time: 10
Customer 4: (22, 85), Demand: 10, Time Window: [0, 190], Service Time: 10
Customer 5: (20, 80), Demand: 40, Time Window: [141, 171], Service Time: 10
calling MST kernel
Post Processing Route
Post 2 opt Processing Route
2-opt between 9 and 11 improved cost from 2638.25 to 2637.67
Elapsed time: 0.743613 seconds
Final Route: 
Route #1: 80 91 
Route #2: 92 95 62 67 50 34 31 
Route #3: 29 27 26 
Route #4: 28 30 32 
Route #5: 33 84 85 
Route #6: 63 76 89 
Route #7: 51 56 
Route #8: 64 94 96 54 72 
Route #9: 41 
Route #10: 39 40 
Route #11: 42 44 43 
Route #12: 38 37 
Route #13: 36 35 
Route #14: 81 
Route #15: 61 68 93 
Route #16: 71 90 
Route #17: 69 98 88 60 
Route #18: 78 12 
Route #19: 14 47 15 16 17 
Route #20: 11 10 
Route #21: 9 13 
Route #22: 73 79 7 
Route #23: 8 46 4 
Route #24: 45 5 3 1 6 2 55 100 70 
Route #25: 53 
Route #26: 65 82 99 52 86 74 
Route #27: 87 59 97 58 
Route #28: 75 77 25 
Route #29: 23 21 48 18 
Route #30: 19 49 20 
Route #31: 22 24 
Route #32: 57 66 83 
Route #33: Total Distance: 2638.25
Final route is valid
