outputs/rc102.txt.out
filename: RC102
Vehicles: 25, Capacity: 200
Total customers : 101
No of routes: 31
Route #1: 90
Route #2: 65 82 99 52 86 74
Route #3: 87 59 97 58
Route #4: 75 77 25
Route #5: 23 21 48 18
Route #6: 19 49 20
Route #7: 22 24
Route #8: 66 83 57
Route #9: 69 98 88 60
Route #10: 78 12
Route #11: 14 47 15 16 17
Route #12: 11 10
Route #13: 9 13
Route #14: 73 79 7
Route #15: 8 46 4
Route #16: 1 3 5 45 6 2 55 100 70
Route #17: 53 91 80
Route #18: 92 95 62 67 31 34 50
Route #19: 29 27 26
Route #20: 28 30 32
Route #21: 84 85 33
Route #22: 63 76 89
Route #23: 51 56
Route #24: 64 94 96 54
Route #25: 81
Route #26: 68 61 72
Route #27: 41
Route #28: 39 38 37 40
Route #29: 36 35
Route #30: 42 44 43 93
Route #31: 71
Cost 2517
